p edge 100 2100
e 1 2
e 1 3
e 1 4
e 1 5
e 1 6
e 1 7
e 1 8
e 1 9
e 1 10
e 1 11
e 1 12
e 1 13
e 1 14
e 1 15
e 1 16
e 1 17
e 1 18
e 1 19
e 1 20
e 1 21
e 1 22
e 1 23
e 1 24
e 1 25
e 1 26
e 1 27
e 1 28
e 1 29
e 1 30
e 1 31
e 1 32
e 1 33
e 1 34
e 1 35
e 1 36
e 1 37
e 1 38
e 1 39
e 1 40
e 1 41
e 1 42
e 1 43
e 1 44
e 1 45
e 1 46
e 1 47
e 1 48
e 1 49
e 1 50
e 1 51
e 1 52
e 1 53
e 1 54
e 1 55
e 1 56
e 1 57
e 1 58
e 1 59
e 1 60
e 1 61
e 1 62
e 1 63
e 1 64
e 1 65
e 1 66
e 1 67
e 1 68
e 1 69
e 1 70
e 1 71
e 1 72
e 1 73
e 1 74
e 1 75
e 1 76
e 1 77
e 1 78
e 1 79
e 1 80
e 1 81
e 2 32
e 2 33
e 2 34
e 2 35
e 2 36
e 2 38
e 2 39
e 2 40
e 2 42
e 2 43
e 2 46
e 2 82
e 2 47
e 2 50
e 2 51
e 2 52
e 2 53
e 2 56
e 2 83
e 2 57
e 2 59
e 2 60
e 2 84
e 2 85
e 2 62
e 2 64
e 2 65
e 2 66
e 2 68
e 2 69
e 2 73
e 2 74
e 2 86
e 2 76
e 2 87
e 2 88
e 2 89
e 2 81
e 3 32
e 3 33
e 3 34
e 3 35
e 3 36
e 3 38
e 3 42
e 3 43
e 3 44
e 3 46
e 3 47
e 3 48
e 3 51
e 3 52
e 3 54
e 3 58
e 3 59
e 3 90
e 3 91
e 3 65
e 3 66
e 3 67
e 3 71
e 3 73
e 3 92
e 3 87
e 3 77
e 3 93
e 4 32
e 4 33
e 4 34
e 4 35
e 4 36
e 4 37
e 4 38
e 4 39
e 4 42
e 4 43
e 4 45
e 4 46
e 4 82
e 4 47
e 4 48
e 4 50
e 4 53
e 4 54
e 4 57
e 4 58
e 4 59
e 4 90
e 4 60
e 4 91
e 4 94
e 4 67
e 4 69
e 4 73
e 4 92
e 4 74
e 4 86
e 4 87
e 4 88
e 4 80
e 4 89
e 4 81
e 5 32
e 5 33
e 5 34
e 5 35
e 5 36
e 5 37
e 5 38
e 5 39
e 5 41
e 5 42
e 5 43
e 5 45
e 5 46
e 5 47
e 5 49
e 5 53
e 5 55
e 5 56
e 5 83
e 5 84
e 5 95
e 5 96
e 5 86
e 5 79
e 5 89
e 6 32
e 6 34
e 6 35
e 6 36
e 6 38
e 6 41
e 6 42
e 6 43
e 6 45
e 6 48
e 6 49
e 6 53
e 6 56
e 6 83
e 6 58
e 6 59
e 6 91
e 6 85
e 6 64
e 6 70
e 6 72
e 6 92
e 6 87
e 6 97
e 6 77
e 6 88
e 6 98
e 6 80
e 7 32
e 7 34
e 7 35
e 7 36
e 7 37
e 7 38
e 7 41
e 7 42
e 7 45
e 7 82
e 7 47
e 7 54
e 7 55
e 7 57
e 7 59
e 7 60
e 7 85
e 7 63
e 7 64
e 7 66
e 7 72
e 7 74
e 7 86
e 7 76
e 8 32
e 8 33
e 8 34
e 8 35
e 8 36
e 8 37
e 8 38
e 8 39
e 8 40
e 8 41
e 8 42
e 8 43
e 8 45
e 8 47
e 8 48
e 8 49
e 8 52
e 8 53
e 8 55
e 8 58
e 8 84
e 8 91
e 8 63
e 8 65
e 8 69
e 8 71
e 8 99
e 8 81
e 9 32
e 9 33
e 9 34
e 9 35
e 9 37
e 9 38
e 9 39
e 9 40
e 9 41
e 9 42
e 9 43
e 9 44
e 9 45
e 9 47
e 9 49
e 9 56
e 9 60
e 9 91
e 9 85
e 9 63
e 9 65
e 9 96
e 9 71
e 9 72
e 9 100
e 9 76
e 9 98
e 9 81
e 10 32
e 10 33
e 10 34
e 10 36
e 10 37
e 10 38
e 10 40
e 10 41
e 10 44
e 10 46
e 10 51
e 10 90
e 10 84
e 10 91
e 10 95
e 10 69
e 10 71
e 10 75
e 10 97
e 10 77
e 10 89
e 11 32
e 11 33
e 11 34
e 11 36
e 11 37
e 11 39
e 11 40
e 11 41
e 11 46
e 11 82
e 11 47
e 11 48
e 11 51
e 11 52
e 11 54
e 11 56
e 11 83
e 11 59
e 11 84
e 11 95
e 11 62
e 11 69
e 11 99
e 11 86
e 11 76
e 11 78
e 11 80
e 11 89
e 12 32
e 12 33
e 12 35
e 12 36
e 12 37
e 12 38
e 12 39
e 12 41
e 12 42
e 12 82
e 12 47
e 12 48
e 12 49
e 12 50
e 12 52
e 12 53
e 12 56
e 12 60
e 12 95
e 12 94
e 12 67
e 12 96
e 12 92
e 12 100
e 12 76
e 12 88
e 12 80
e 12 93
e 13 32
e 13 33
e 13 34
e 13 35
e 13 36
e 13 37
e 13 38
e 13 39
e 13 40
e 13 41
e 13 42
e 13 43
e 13 44
e 13 45
e 13 46
e 13 82
e 13 48
e 13 49
e 13 50
e 13 51
e 13 53
e 13 54
e 13 55
e 13 95
e 13 85
e 13 61
e 13 62
e 13 94
e 13 65
e 13 68
e 13 73
e 13 75
e 13 76
e 13 78
e 14 32
e 14 33
e 14 34
e 14 35
e 14 36
e 14 37
e 14 38
e 14 39
e 14 40
e 14 41
e 14 42
e 14 43
e 14 44
e 14 45
e 14 46
e 14 82
e 14 47
e 14 48
e 14 49
e 14 51
e 14 53
e 14 54
e 14 55
e 14 83
e 14 58
e 14 59
e 14 60
e 14 84
e 14 91
e 14 62
e 14 94
e 14 64
e 14 65
e 14 66
e 14 68
e 14 72
e 14 73
e 14 92
e 14 86
e 14 87
e 14 88
e 14 79
e 15 32
e 15 33
e 15 34
e 15 36
e 15 37
e 15 38
e 15 39
e 15 41
e 15 42
e 15 44
e 15 46
e 15 48
e 15 51
e 15 56
e 15 90
e 15 84
e 15 70
e 15 76
e 16 32
e 16 33
e 16 35
e 16 36
e 16 37
e 16 38
e 16 40
e 16 45
e 16 82
e 16 52
e 16 54
e 16 55
e 16 83
e 16 57
e 16 58
e 16 59
e 16 60
e 16 63
e 16 64
e 16 66
e 16 67
e 16 99
e 16 92
e 16 87
e 16 97
e 16 88
e 16 80
e 17 32
e 17 33
e 17 34
e 17 35
e 17 36
e 17 39
e 17 40
e 17 41
e 17 42
e 17 43
e 17 82
e 17 50
e 17 51
e 17 53
e 17 55
e 17 56
e 17 58
e 17 60
e 17 94
e 17 65
e 17 66
e 17 67
e 17 70
e 17 96
e 17 92
e 17 97
e 17 80
e 18 32
e 18 33
e 18 34
e 18 35
e 18 36
e 18 37
e 18 38
e 18 39
e 18 40
e 18 41
e 18 42
e 18 43
e 18 45
e 18 46
e 18 82
e 18 48
e 18 50
e 18 51
e 18 56
e 18 83
e 18 57
e 18 59
e 18 95
e 18 94
e 18 63
e 18 68
e 18 100
e 18 98
e 18 89
e 19 32
e 19 33
e 19 34
e 19 35
e 19 37
e 19 38
e 19 40
e 19 41
e 19 44
e 19 45
e 19 46
e 19 47
e 19 50
e 19 53
e 19 57
e 19 62
e 19 94
e 19 64
e 19 67
e 19 99
e 19 92
e 19 74
e 19 86
e 19 100
e 19 87
e 19 77
e 19 78
e 20 32
e 20 33
e 20 34
e 20 35
e 20 36
e 20 43
e 20 44
e 20 50
e 20 59
e 20 84
e 20 72
e 20 97
e 20 88
e 21 32
e 21 33
e 21 35
e 21 37
e 21 38
e 21 39
e 21 40
e 21 41
e 21 43
e 21 44
e 21 46
e 21 82
e 21 47
e 21 48
e 21 51
e 21 83
e 21 57
e 21 90
e 21 85
e 21 64
e 21 69
e 21 96
e 21 93
e 21 89
e 22 32
e 22 33
e 22 34
e 22 36
e 22 40
e 22 42
e 22 47
e 22 52
e 22 59
e 22 68
e 22 86
e 22 87
e 23 32
e 23 33
e 23 34
e 23 35
e 23 36
e 23 37
e 23 38
e 23 39
e 23 40
e 23 41
e 23 42
e 23 44
e 23 45
e 23 47
e 23 48
e 23 49
e 23 50
e 23 83
e 23 58
e 23 90
e 23 91
e 23 94
e 23 63
e 23 96
e 23 99
e 23 73
e 23 92
e 23 74
e 23 76
e 23 77
e 23 88
e 24 33
e 24 34
e 24 35
e 24 36
e 24 37
e 24 38
e 24 39
e 24 40
e 24 43
e 24 44
e 24 45
e 24 47
e 24 49
e 24 50
e 24 52
e 24 54
e 24 56
e 24 57
e 24 60
e 24 84
e 24 91
e 24 85
e 24 61
e 24 62
e 24 94
e 24 63
e 24 66
e 24 68
e 24 70
e 24 72
e 24 73
e 24 97
e 24 88
e 25 32
e 25 33
e 25 34
e 25 35
e 25 37
e 25 38
e 25 39
e 25 40
e 25 41
e 25 43
e 25 44
e 25 45
e 25 46
e 25 82
e 25 47
e 25 48
e 25 49
e 25 50
e 25 51
e 25 52
e 25 53
e 25 54
e 25 55
e 25 56
e 25 83
e 25 90
e 25 60
e 25 84
e 25 95
e 25 85
e 25 61
e 25 64
e 25 65
e 25 68
e 25 69
e 25 70
e 25 96
e 25 74
e 25 75
e 25 100
e 25 76
e 25 87
e 26 32
e 26 33
e 26 34
e 26 35
e 26 37
e 26 39
e 26 40
e 26 41
e 26 43
e 26 44
e 26 82
e 26 48
e 26 50
e 26 51
e 26 52
e 26 54
e 26 55
e 26 57
e 26 59
e 26 90
e 26 91
e 26 95
e 26 62
e 26 66
e 26 67
e 26 68
e 26 96
e 26 71
e 26 86
e 26 76
e 26 77
e 26 78
e 26 79
e 26 98
e 26 81
e 27 32
e 27 33
e 27 34
e 27 35
e 27 36
e 27 37
e 27 39
e 27 40
e 27 42
e 27 44
e 27 45
e 27 46
e 27 82
e 27 49
e 27 54
e 27 83
e 27 57
e 27 91
e 27 95
e 27 85
e 27 64
e 27 66
e 27 67
e 27 73
e 27 92
e 27 74
e 27 100
e 27 76
e 27 97
e 27 88
e 27 98
e 28 32
e 28 33
e 28 34
e 28 35
e 28 36
e 28 37
e 28 38
e 28 39
e 28 40
e 28 41
e 28 42
e 28 43
e 28 44
e 28 45
e 28 46
e 28 49
e 28 51
e 28 53
e 28 54
e 28 55
e 28 56
e 28 83
e 28 57
e 28 58
e 28 60
e 28 84
e 28 85
e 28 61
e 28 94
e 28 71
e 28 73
e 28 76
e 28 80
e 28 81
e 29 32
e 29 33
e 29 34
e 29 35
e 29 36
e 29 37
e 29 39
e 29 40
e 29 41
e 29 43
e 29 45
e 29 46
e 29 48
e 29 49
e 29 50
e 29 51
e 29 53
e 29 55
e 29 57
e 29 58
e 29 59
e 29 91
e 29 61
e 29 66
e 29 68
e 29 70
e 29 96
e 29 99
e 29 73
e 29 76
e 29 79
e 29 93
e 29 89
e 30 32
e 30 33
e 30 34
e 30 35
e 30 36
e 30 37
e 30 38
e 30 39
e 30 40
e 30 42
e 30 44
e 30 45
e 30 46
e 30 49
e 30 51
e 30 52
e 30 57
e 30 90
e 30 60
e 30 84
e 30 95
e 30 94
e 30 70
e 30 86
e 30 87
e 30 80
e 31 32
e 31 33
e 31 34
e 31 35
e 31 36
e 31 37
e 31 38
e 31 39
e 31 41
e 31 43
e 31 44
e 31 82
e 31 50
e 31 54
e 31 90
e 31 60
e 31 84
e 31 95
e 31 85
e 31 61
e 31 94
e 31 68
e 31 99
e 31 92
e 31 75
e 31 76
e 31 87
e 31 77
e 31 89
e 32 33
e 32 34
e 32 35
e 32 36
e 32 37
e 32 38
e 32 39
e 32 40
e 32 42
e 32 43
e 32 44
e 32 45
e 32 46
e 32 82
e 32 47
e 32 48
e 32 50
e 32 51
e 32 52
e 32 53
e 32 56
e 32 83
e 32 57
e 32 58
e 32 59
e 32 90
e 32 60
e 32 91
e 32 95
e 32 61
e 32 62
e 32 65
e 32 66
e 32 71
e 32 72
e 32 92
e 32 75
e 32 86
e 32 100
e 32 76
e 32 87
e 32 77
e 32 78
e 32 88
e 32 80
e 32 93
e 32 89
e 33 34
e 33 35
e 33 36
e 33 37
e 33 38
e 33 39
e 33 40
e 33 41
e 33 42
e 33 43
e 33 44
e 33 45
e 33 46
e 33 82
e 33 47
e 33 48
e 33 49
e 33 50
e 33 51
e 33 52
e 33 53
e 33 55
e 33 56
e 33 83
e 33 57
e 33 90
e 33 60
e 33 84
e 33 91
e 33 95
e 33 85
e 33 61
e 33 62
e 33 65
e 33 66
e 33 69
e 33 70
e 33 99
e 33 74
e 33 100
e 33 88
e 33 98
e 33 80
e 33 93
e 33 81
e 34 35
e 34 36
e 34 37
e 34 38
e 34 39
e 34 40
e 34 41
e 34 42
e 34 43
e 34 44
e 34 82
e 34 47
e 34 48
e 34 49
e 34 51
e 34 52
e 34 53
e 34 54
e 34 55
e 34 83
e 34 57
e 34 58
e 34 59
e 34 60
e 34 84
e 34 91
e 34 95
e 34 85
e 34 61
e 34 62
e 34 94
e 34 63
e 34 64
e 34 65
e 34 68
e 34 69
e 34 96
e 34 71
e 34 72
e 34 75
e 34 100
e 34 78
e 34 88
e 34 98
e 34 93
e 35 36
e 35 37
e 35 38
e 35 39
e 35 40
e 35 41
e 35 42
e 35 43
e 35 44
e 35 45
e 35 46
e 35 82
e 35 47
e 35 48
e 35 49
e 35 50
e 35 51
e 35 52
e 35 54
e 35 55
e 35 56
e 35 57
e 35 58
e 35 59
e 35 90
e 35 60
e 35 84
e 35 95
e 35 61
e 35 62
e 35 94
e 35 64
e 35 66
e 35 68
e 35 69
e 35 70
e 35 96
e 35 71
e 35 72
e 35 99
e 35 73
e 35 74
e 35 100
e 35 76
e 35 87
e 35 97
e 35 77
e 35 78
e 35 93
e 35 81
e 36 37
e 36 38
e 36 39
e 36 40
e 36 41
e 36 42
e 36 44
e 36 45
e 36 46
e 36 82
e 36 47
e 36 48
e 36 49
e 36 50
e 36 52
e 36 53
e 36 55
e 36 56
e 36 83
e 36 57
e 36 90
e 36 60
e 36 84
e 36 91
e 36 95
e 36 85
e 36 61
e 36 62
e 36 63
e 36 64
e 36 65
e 36 66
e 36 67
e 36 69
e 36 70
e 36 71
e 36 72
e 36 75
e 36 86
e 36 97
e 36 77
e 36 78
e 36 98
e 36 80
e 36 93
e 36 89
e 37 38
e 37 39
e 37 40
e 37 41
e 37 42
e 37 43
e 37 44
e 37 45
e 37 46
e 37 82
e 37 47
e 37 48
e 37 49
e 37 50
e 37 51
e 37 52
e 37 53
e 37 54
e 37 55
e 37 56
e 37 83
e 37 58
e 37 59
e 37 90
e 37 91
e 37 95
e 37 61
e 37 62
e 37 94
e 37 66
e 37 68
e 37 69
e 37 96
e 37 71
e 37 72
e 37 73
e 37 92
e 37 74
e 37 75
e 37 86
e 37 76
e 37 87
e 37 78
e 37 88
e 38 39
e 38 40
e 38 41
e 38 42
e 38 43
e 38 44
e 38 45
e 38 46
e 38 82
e 38 47
e 38 48
e 38 50
e 38 51
e 38 52
e 38 53
e 38 54
e 38 83
e 38 59
e 38 90
e 38 84
e 38 91
e 38 95
e 38 85
e 38 61
e 38 62
e 38 64
e 38 65
e 38 67
e 38 68
e 38 96
e 38 99
e 38 73
e 38 74
e 38 100
e 38 76
e 38 88
e 38 79
e 38 80
e 38 93
e 38 89
e 38 81
e 39 40
e 39 41
e 39 42
e 39 43
e 39 44
e 39 45
e 39 46
e 39 82
e 39 47
e 39 49
e 39 50
e 39 51
e 39 52
e 39 53
e 39 54
e 39 55
e 39 56
e 39 57
e 39 84
e 39 62
e 39 94
e 39 63
e 39 66
e 39 68
e 39 72
e 39 99
e 39 73
e 39 92
e 39 100
e 39 97
e 39 88
e 39 79
e 39 89
e 40 41
e 40 42
e 40 43
e 40 44
e 40 45
e 40 82
e 40 48
e 40 49
e 40 50
e 40 51
e 40 52
e 40 53
e 40 54
e 40 55
e 40 58
e 40 59
e 40 90
e 40 60
e 40 84
e 40 91
e 40 95
e 40 61
e 40 62
e 40 63
e 40 66
e 40 67
e 40 70
e 40 96
e 40 71
e 40 72
e 40 99
e 40 74
e 40 100
e 40 76
e 40 97
e 40 78
e 40 79
e 40 93
e 40 89
e 40 81
e 41 42
e 41 43
e 41 44
e 41 45
e 41 46
e 41 82
e 41 47
e 41 49
e 41 50
e 41 51
e 41 52
e 41 53
e 41 55
e 41 56
e 41 83
e 41 58
e 41 59
e 41 90
e 41 60
e 41 91
e 41 95
e 41 85
e 41 62
e 41 94
e 41 63
e 41 64
e 41 65
e 41 66
e 41 68
e 41 69
e 41 96
e 41 71
e 41 72
e 41 99
e 41 74
e 41 75
e 41 100
e 41 87
e 41 97
e 41 77
e 41 88
e 41 80
e 41 93
e 42 43
e 42 44
e 42 45
e 42 46
e 42 82
e 42 47
e 42 48
e 42 49
e 42 50
e 42 51
e 42 52
e 42 54
e 42 55
e 42 56
e 42 83
e 42 57
e 42 59
e 42 60
e 42 91
e 42 95
e 42 85
e 42 61
e 42 63
e 42 64
e 42 66
e 42 70
e 42 96
e 42 71
e 42 99
e 42 73
e 42 100
e 42 87
e 42 88
e 42 79
e 42 98
e 42 89
e 43 44
e 43 46
e 43 82
e 43 48
e 43 49
e 43 53
e 43 54
e 43 55
e 43 56
e 43 83
e 43 57
e 43 58
e 43 90
e 43 60
e 43 84
e 43 91
e 43 95
e 43 61
e 43 63
e 43 65
e 43 70
e 43 72
e 43 99
e 43 73
e 43 92
e 43 74
e 43 86
e 43 100
e 43 97
e 43 77
e 43 78
e 43 98
e 43 80
e 43 89
e 43 81
e 44 45
e 44 46
e 44 82
e 44 47
e 44 48
e 44 50
e 44 53
e 44 55
e 44 56
e 44 83
e 44 58
e 44 59
e 44 90
e 44 91
e 44 95
e 44 85
e 44 61
e 44 64
e 44 65
e 44 68
e 44 96
e 44 71
e 44 99
e 44 74
e 44 75
e 44 86
e 44 76
e 44 87
e 44 79
e 44 98
e 44 80
e 44 81
e 45 46
e 45 82
e 45 48
e 45 49
e 45 50
e 45 51
e 45 52
e 45 53
e 45 54
e 45 55
e 45 57
e 45 58
e 45 90
e 45 60
e 45 85
e 45 62
e 45 94
e 45 63
e 45 64
e 45 65
e 45 67
e 45 96
e 45 92
e 45 75
e 45 86
e 45 97
e 45 78
e 45 93
e 45 89
e 45 81
e 46 82
e 46 47
e 46 49
e 46 52
e 46 54
e 46 55
e 46 57
e 46 58
e 46 59
e 46 84
e 46 91
e 46 95
e 46 61
e 46 62
e 46 94
e 46 63
e 46 64
e 46 67
e 46 71
e 46 73
e 46 74
e 46 86
e 46 100
e 46 79
e 46 98
e 46 80
e 46 89
e 82 47
e 82 48
e 82 49
e 82 50
e 82 51
e 82 52
e 82 53
e 82 55
e 82 57
e 82 58
e 82 60
e 82 84
e 82 95
e 82 85
e 82 61
e 82 94
e 82 64
e 82 65
e 82 66
e 82 67
e 82 68
e 82 72
e 82 99
e 82 73
e 82 74
e 82 86
e 82 77
e 82 79
e 82 98
e 82 80
e 82 93
e 82 89
e 47 48
e 47 49
e 47 50
e 47 51
e 47 52
e 47 54
e 47 55
e 47 56
e 47 83
e 47 57
e 47 90
e 47 60
e 47 84
e 47 91
e 47 61
e 47 62
e 47 63
e 47 67
e 47 68
e 47 70
e 47 71
e 47 99
e 47 73
e 47 86
e 47 100
e 47 77
e 47 78
e 47 80
e 47 93
e 48 49
e 48 50
e 48 52
e 48 53
e 48 54
e 48 55
e 48 83
e 48 57
e 48 58
e 48 59
e 48 90
e 48 95
e 48 94
e 48 65
e 48 68
e 48 69
e 48 96
e 48 71
e 48 72
e 48 74
e 48 87
e 48 78
e 48 98
e 48 80
e 48 81
e 49 51
e 49 52
e 49 54
e 49 55
e 49 56
e 49 83
e 49 59
e 49 60
e 49 95
e 49 85
e 49 61
e 49 62
e 49 94
e 49 64
e 49 66
e 49 67
e 49 68
e 49 69
e 49 71
e 49 72
e 49 99
e 49 100
e 49 77
e 49 89
e 50 54
e 50 56
e 50 83
e 50 57
e 50 58
e 50 59
e 50 90
e 50 60
e 50 63
e 50 67
e 50 68
e 50 70
e 50 71
e 50 72
e 50 99
e 50 75
e 50 86
e 50 100
e 50 87
e 50 97
e 50 77
e 50 88
e 50 98
e 51 52
e 51 53
e 51 56
e 51 83
e 51 58
e 51 59
e 51 84
e 51 61
e 51 62
e 51 94
e 51 64
e 51 65
e 51 67
e 51 71
e 51 92
e 51 86
e 51 100
e 51 97
e 51 78
e 51 79
e 52 53
e 52 54
e 52 55
e 52 56
e 52 57
e 52 58
e 52 90
e 52 85
e 52 61
e 52 67
e 52 68
e 52 69
e 52 70
e 52 96
e 52 75
e 52 86
e 52 97
e 52 77
e 52 88
e 52 93
e 52 81
e 53 54
e 53 56
e 53 58
e 53 90
e 53 84
e 53 91
e 53 85
e 53 62
e 53 94
e 53 63
e 53 64
e 53 92
e 53 74
e 53 100
e 53 97
e 53 77
e 53 88
e 53 89
e 53 81
e 54 56
e 54 83
e 54 57
e 54 58
e 54 85
e 54 61
e 54 94
e 54 64
e 54 65
e 54 66
e 54 68
e 54 96
e 54 99
e 54 73
e 54 92
e 54 100
e 54 78
e 54 98
e 54 89
e 55 83
e 55 58
e 55 90
e 55 84
e 55 95
e 55 62
e 55 63
e 55 65
e 55 67
e 55 68
e 55 70
e 55 96
e 55 72
e 55 92
e 55 74
e 55 75
e 55 86
e 55 97
e 55 77
e 55 88
e 55 93
e 55 81
e 56 83
e 56 90
e 56 91
e 56 95
e 56 61
e 56 62
e 56 63
e 56 64
e 56 65
e 56 67
e 56 69
e 56 70
e 56 96
e 56 71
e 56 99
e 56 74
e 56 76
e 56 87
e 56 77
e 56 78
e 56 93
e 56 81
e 83 84
e 83 85
e 83 65
e 83 66
e 83 68
e 83 69
e 83 96
e 83 71
e 83 72
e 83 99
e 83 92
e 83 75
e 83 97
e 83 77
e 83 98
e 83 80
e 83 93
e 57 58
e 57 59
e 57 90
e 57 60
e 57 91
e 57 61
e 57 65
e 57 66
e 57 96
e 57 71
e 57 92
e 57 74
e 57 100
e 57 77
e 57 78
e 57 79
e 57 80
e 57 89
e 57 81
e 58 59
e 58 90
e 58 84
e 58 95
e 58 85
e 58 61
e 58 62
e 58 63
e 58 65
e 58 66
e 58 69
e 58 70
e 58 71
e 58 73
e 58 92
e 58 75
e 58 88
e 58 93
e 59 91
e 59 63
e 59 67
e 59 70
e 59 96
e 59 72
e 59 99
e 59 73
e 59 92
e 59 75
e 59 87
e 59 88
e 59 81
e 90 60
e 90 91
e 90 85
e 90 61
e 90 94
e 90 63
e 90 66
e 90 67
e 90 70
e 90 72
e 90 75
e 90 86
e 90 76
e 90 87
e 90 97
e 90 77
e 90 78
e 90 88
e 90 79
e 90 98
e 90 81
e 60 84
e 60 85
e 60 62
e 60 94
e 60 64
e 60 69
e 60 70
e 60 71
e 60 74
e 60 75
e 60 86
e 60 76
e 60 78
e 60 79
e 60 98
e 60 89
e 84 85
e 84 61
e 84 62
e 84 94
e 84 64
e 84 67
e 84 69
e 84 70
e 84 72
e 84 92
e 84 74
e 84 76
e 84 97
e 84 98
e 84 93
e 91 85
e 91 94
e 91 65
e 91 66
e 91 67
e 91 68
e 91 69
e 91 70
e 91 72
e 91 73
e 91 92
e 91 74
e 91 75
e 91 97
e 91 79
e 91 98
e 91 80
e 91 93
e 91 81
e 95 63
e 95 64
e 95 67
e 95 70
e 95 100
e 95 87
e 95 97
e 95 77
e 95 78
e 95 79
e 95 93
e 95 89
e 85 63
e 85 65
e 85 66
e 85 68
e 85 69
e 85 71
e 85 99
e 85 92
e 85 75
e 85 87
e 85 97
e 85 98
e 61 62
e 61 94
e 61 63
e 61 66
e 61 67
e 61 69
e 61 96
e 61 76
e 61 78
e 61 88
e 62 63
e 62 64
e 62 65
e 62 67
e 62 69
e 62 70
e 62 73
e 62 74
e 62 75
e 62 87
e 62 77
e 62 78
e 62 79
e 94 63
e 94 67
e 94 69
e 94 70
e 94 96
e 94 71
e 94 72
e 94 92
e 94 74
e 94 76
e 94 80
e 94 81
e 63 64
e 63 69
e 63 72
e 63 73
e 63 92
e 63 75
e 63 79
e 64 99
e 64 73
e 64 75
e 64 97
e 64 78
e 64 80
e 64 93
e 65 69
e 65 96
e 65 99
e 65 76
e 65 97
e 65 79
e 65 98
e 66 68
e 66 71
e 66 79
e 66 80
e 66 93
e 67 70
e 67 99
e 67 73
e 67 75
e 67 86
e 67 100
e 67 88
e 67 89
e 68 69
e 68 70
e 68 72
e 68 75
e 68 79
e 68 98
e 69 99
e 69 73
e 69 74
e 69 97
e 69 78
e 69 88
e 69 80
e 69 93
e 69 89
e 70 96
e 70 72
e 70 92
e 70 100
e 70 76
e 70 98
e 70 93
e 96 75
e 96 86
e 96 87
e 96 98
e 71 99
e 71 74
e 71 75
e 71 86
e 71 87
e 71 97
e 71 77
e 71 79
e 71 98
e 72 86
e 72 87
e 72 78
e 99 73
e 99 86
e 99 87
e 99 77
e 99 78
e 99 79
e 73 75
e 73 100
e 73 76
e 73 79
e 73 98
e 73 93
e 92 77
e 92 78
e 92 79
e 92 89
e 92 81
e 74 100
e 74 87
e 74 78
e 75 100
e 75 97
e 75 79
e 75 98
e 75 93
e 75 81
e 86 81
e 100 88
e 100 93
e 76 80
e 76 81
e 87 88
e 87 79
e 97 77
e 97 89
e 77 80
e 78 81
e 88 79
e 79 98
e 79 80
e 79 89
e 93 81
